Version identifier: 22.1.1.0 | 2022-11-28 | 9160aff4d
CPXPARAM_ClockType                               1
CPXPARAM_Read_DataCheck                          1
CPXPARAM_Threads                                 1
CPXPARAM_TimeLimit                               7200
CPXPARAM_MIP_Tolerances_AbsMIPGap                0
CPXPARAM_MIP_Tolerances_MIPGap                   0
CPXPARAM_MIP_Tolerances_Integrality              0
Tried aggregator 1 time.
MIP Presolve eliminated 1717 rows and 9 columns.
MIP Presolve modified 938 coefficients.
Reduced MIP has 9274 rows, 4341 columns, and 29346 nonzeros.
Reduced MIP has 4341 binaries, 0 generals, 0 SOSs, and 0 indicators.
Presolve time = 0.03 sec. (19.20 ticks)
Probing time = 0.01 sec. (3.27 ticks)
Tried aggregator 1 time.
Detecting symmetries...
MIP Presolve eliminated 500 rows and 0 columns.
Reduced MIP has 8774 rows, 4341 columns, and 27846 nonzeros.
Reduced MIP has 4341 binaries, 0 generals, 0 SOSs, and 0 indicators.
Presolve time = 0.03 sec. (22.85 ticks)
Probing time = 0.01 sec. (3.18 ticks)
Clique table members: 7730.
MIP emphasis: balance optimality and feasibility.
MIP search method: dynamic search.
Parallel mode: none, using 1 thread.
Root relaxation solution time = 1.31 sec. (903.42 ticks)

        Nodes                                         Cuts/
   Node  Left     Objective  IInf  Best Integer    Best Bound    ItCnt     Gap

      0     0     3300.0000  1306                   3300.0000     4955         
      0     0     3300.0000  1227                   Cuts: 112     6311         
      0     0     3300.0000  1180                   Cuts: 195    10064         
      0     0     3300.0000  1162                    Cuts: 42    11686         
      0     0     3300.0000  1149                   Cuts: 138    13891         
      0     0     3300.0000  1213                   Cuts: 127    16950         
Detecting symmetries...
      0     0     3300.0000  1239                    Cuts: 39    17542         
*     0+    0                            0.0000     3300.0000              --- 
*     0+    0                           18.0000     3300.0000              --- 
      0     0        cutoff             18.0000     3300.0000    17542     --- 
Detecting symmetries...
      0     2     3300.0000  1232       18.0000     3300.0000    17542     --- 
Elapsed time = 18.59 sec. (12074.57 ticks, tree = 0.01 MB, solutions = 2)
      1     3     3274.0000  1179       18.0000     3300.0000    44105     --- 
      2     4     3300.0000  1073       18.0000     3300.0000    48225     --- 
      3     5     3300.0000  1053       18.0000     3300.0000    49261     --- 
      4     6     3300.0000  1037       18.0000     3300.0000    51905     --- 
      5     7     3300.0000  1025       18.0000     3300.0000    57229     --- 
      6     8     3300.0000   965       18.0000     3300.0000    61022     --- 
      7     9     3204.0000  1016       18.0000     3300.0000    69130     --- 
      8    10     3300.0000   909       18.0000     3300.0000    71978     --- 
      9    11     3300.0000   900       18.0000     3300.0000    72903     --- 
     11    13     3300.0000   889       18.0000     3300.0000    76137     --- 
Elapsed time = 40.36 sec. (27807.24 ticks, tree = 0.10 MB, solutions = 2)
     14    16     3300.0000   801       18.0000     3300.0000    80698     --- 
     17    19     3300.0000   550       18.0000     3300.0000    85922     --- 
     20    22     3300.0000   483       18.0000     3300.0000    88358     --- 
     23    25     3300.0000   461       18.0000     3300.0000    96046     --- 
     29    27     3295.7143   574       18.0000     3300.0000   106679     --- 
     32    30     3264.5714   557       18.0000     3300.0000   111871     --- 
     37    35     3214.0000   275       18.0000     3300.0000   118520     --- 
*    40+   34                         3204.0000     3300.0000             3.00%
*    47    35      integral     0     3222.0000     3300.0000   119404    2.42%
     51    38     3271.1333   571     3222.0000     3300.0000   122143    2.42%
*    60+   36                         3252.0000     3300.0000             1.48%
     65    40     3290.6667   544     3252.0000     3300.0000   126299    1.48%
     77    48     3299.9362   626     3252.0000     3300.0000   130359    1.48%
Elapsed time = 57.29 sec. (39420.82 ticks, tree = 1.56 MB, solutions = 5)
     87    55     3299.8182   636     3252.0000     3300.0000   134118    1.48%
     94    59     3254.2500   335     3252.0000     3300.0000   138439    1.48%
*    98    58      integral     0     3256.0000     3300.0000   138467    1.35%
*   108    60      integral     0     3260.0000     3300.0000   140505    1.23%
    110    59     3300.0000   571     3260.0000     3300.0000   141201    1.23%
    115    62     3284.0000   307     3260.0000     3300.0000   145707    1.23%
*   124    60      integral     0     3268.0000     3300.0000   147229    0.98%
*   130+   41                         3292.0000     3300.0000             0.24%
    130    43     3300.0000    14     3292.0000     3300.0000   149996    0.24%
*   139     1      integral     0     3300.0000     3300.0000   151407    0.00%

Clique cuts applied:  26
Implied bound cuts applied:  5
Mixed integer rounding cuts applied:  1
Zero-half cuts applied:  27
Gomory fractional cuts applied:  1

Root node processing (before b&c):
  Real time             =   18.58 sec. (12068.88 ticks)
Sequential b&c:
  Real time             =   46.17 sec. (33438.99 ticks)
                          ------------
Total (root+branch&cut) =   64.75 sec. (45507.87 ticks)
Solution is feasible.

---------------------
@@@ MIP_optimal
>>> Benchmark flat50-6.cnf k 10 OPT 3300 TimeCost 65.96578192710876 TimeSolve 65.08275818824768 TimeRead 0.0018074512481689453 TimeTrans 0.881216287612915
